Maximize
F 

Subject to
F - 9y24 - 12y7 - 6y151 - 6y146 - 6y116 - 12y38 - 6y171 - 9y92 - 6y141 - 9y86 - 6y152 - 9y4 - 9y173 - 9y33 - 12y61 - 6y156 - 6y42 - 12y104 - 3y1 - 9y41 - 6y177 - 6y138 - 9y20 - 3y165 = 0

x129x1x1 + x129x138x1 + x129x20x1 + x129x165x1 
<= 1
x19x146x1 + x19x116x1 + x19x92x1 + x19x152x1 + x19x4x1 + x19x173x1 + x19x156x1 + x19x1x1 + x19x138x1 + x19x20x1 + x19x165x1 
<= 1
x145x146x1 + x145x116x1 + x145x92x1 + x145x152x1 + x145x4x1 + x145x173x1 + x145x156x1 + x145x1x1 + x145x138x1 + x145x20x1 + x145x165x1 
<= 2
x17x146x1 + x17x116x1 + x17x92x1 + x17x152x1 + x17x4x1 + x17x173x1 + x17x156x1 + x17x1x1 + x17x138x1 + x17x20x1 + x17x165x1 
<= 1

x121x24x2 + x121x171x2 + x121x86x2 + x121x4x2 + x121x33x2 + x121x61x2 + x121x42x2 + x121x177x2 + x121x165x2 
<= 2
x129x177x2 + x129x165x2 
<= 1
x19x24x2 + x19x171x2 + x19x86x2 + x19x4x2 + x19x33x2 + x19x61x2 + x19x42x2 + x19x177x2 + x19x165x2 
<= 1
x74x24x2 + x74x171x2 + x74x86x2 + x74x4x2 + x74x33x2 + x74x61x2 + x74x42x2 + x74x177x2 + x74x165x2 
<= 1
x133x24x3 + x133x7x3 + x133x151x3 + x133x146x3 + x133x116x3 + x133x38x3 + x133x171x3 + x133x141x3 + x133x152x3 + x133x33x3 + x133x61x3 + x133x156x3 + x133x42x3 + x133x104x3 + x133x41x3 
<= 2
x58x24x3 + x58x7x3 + x58x151x3 + x58x146x3 + x58x116x3 + x58x38x3 + x58x171x3 + x58x141x3 + x58x152x3 + x58x33x3 + x58x61x3 + x58x156x3 + x58x42x3 + x58x104x3 + x58x41x3 
<= 1
x124x24x3 + x124x7x3 + x124x151x3 + x124x146x3 + x124x116x3 + x124x38x3 + x124x171x3 + x124x141x3 + x124x152x3 + x124x33x3 + x124x61x3 + x124x156x3 + x124x42x3 + x124x104x3 + x124x41x3 
<= 1
x74x24x3 + x74x7x3 + x74x151x3 + x74x146x3 + x74x116x3 + x74x38x3 + x74x171x3 + x74x141x3 + x74x152x3 + x74x33x3 + x74x61x3 + x74x156x3 + x74x42x3 + x74x104x3 + x74x41x3 
<= 1
x17x24x3 + x17x7x3 + x17x151x3 + x17x146x3 + x17x116x3 + x17x38x3 + x17x171x3 + x17x141x3 + x17x152x3 + x17x33x3 + x17x61x3 + x17x156x3 + x17x42x3 + x17x104x3 + x17x41x3 
<= 1


x121x24x2 + x19x24x2 + x74x24x2 
- x24x0x2
- x24x86x2 - x24x4x2 - x24x33x2 - x24x61x2 - x24x42x2 - x24x177x2 - x24x165x2 
= 0
x133x24x3 + x58x24x3 + x124x24x3 + x74x24x3 + x17x24x3 
- x24x0x3
- x24x151x3 - x24x146x3 - x24x116x3 - x24x38x3 - x24x141x3 - x24x152x3 - x24x33x3 - x24x61x3 - x24x156x3 - x24x42x3 - x24x104x3 - x24x41x3 
= 0



x133x7x3 + x58x7x3 + x124x7x3 + x74x7x3 + x17x7x3 
- x7x0x3
- x7x38x3 - x7x141x3 - x7x152x3 - x7x33x3 - x7x61x3 - x7x156x3 - x7x42x3 - x7x104x3 - x7x41x3 
= 0



x133x151x3 + x58x151x3 + x124x151x3 + x74x151x3 + x17x151x3 + x24x151x3 
- x151x0x3
- x151x146x3 - x151x116x3 - x151x38x3 - x151x141x3 - x151x152x3 - x151x33x3 - x151x61x3 - x151x156x3 - x151x42x3 - x151x104x3 - x151x41x3 
= 0

x19x146x1 + x145x146x1 + x17x146x1 
- x146x0x1
- x146x116x1 - x146x92x1 - x146x173x1 - x146x156x1 - x146x1x1 - x146x138x1 - x146x20x1 - x146x165x1 
= 0

x133x146x3 + x58x146x3 + x124x146x3 + x74x146x3 + x17x146x3 + x24x146x3 + x151x146x3 
- x146x0x3
- x146x116x3 - x146x141x3 - x146x33x3 - x146x61x3 - x146x156x3 - x146x42x3 - x146x104x3 - x146x41x3 
= 0

x19x116x1 + x145x116x1 + x17x116x1 + x146x116x1 
- x116x0x1
- x116x92x1 - x116x173x1 - x116x156x1 - x116x1x1 - x116x138x1 - x116x20x1 - x116x165x1 
= 0

x133x116x3 + x58x116x3 + x124x116x3 + x74x116x3 + x17x116x3 + x24x116x3 + x151x116x3 + x146x116x3 
- x116x0x3
- x116x141x3 - x116x33x3 - x116x61x3 - x116x156x3 - x116x42x3 - x116x104x3 - x116x41x3 
= 0



x133x38x3 + x58x38x3 + x124x38x3 + x74x38x3 + x17x38x3 + x24x38x3 + x7x38x3 + x151x38x3 
- x38x0x3
- x38x141x3 - x38x152x3 - x38x33x3 - x38x61x3 - x38x156x3 - x38x42x3 - x38x104x3 - x38x41x3 
= 0


x121x171x2 + x19x171x2 + x74x171x2 
- x171x0x2
- x171x86x2 - x171x4x2 - x171x33x2 - x171x61x2 - x171x177x2 - x171x165x2 
= 0
x133x171x3 + x58x171x3 + x124x171x3 + x74x171x3 + x17x171x3 
- x171x0x3
- x171x152x3 - x171x33x3 - x171x61x3 - x171x156x3 - x171x104x3 - x171x41x3 
= 0

x19x92x1 + x145x92x1 + x17x92x1 + x146x92x1 + x116x92x1 
- x92x0x1
- x92x156x1 - x92x1x1 - x92x138x1 - x92x20x1 - x92x165x1 
= 0





x133x141x3 + x58x141x3 + x124x141x3 + x74x141x3 + x17x141x3 + x24x141x3 + x7x141x3 + x151x141x3 + x146x141x3 + x116x141x3 + x38x141x3 
- x141x0x3
- x141x61x3 - x141x156x3 - x141x42x3 - x141x104x3 - x141x41x3 
= 0


x121x86x2 + x19x86x2 + x74x86x2 + x24x86x2 + x171x86x2 
- x86x0x2
- x86x33x2 - x86x61x2 - x86x177x2 - x86x165x2 
= 0


x19x152x1 + x145x152x1 + x17x152x1 
- x152x0x1
- x152x173x1 - x152x156x1 - x152x1x1 - x152x138x1 - x152x20x1 - x152x165x1 
= 0

x133x152x3 + x58x152x3 + x124x152x3 + x74x152x3 + x17x152x3 + x24x152x3 + x7x152x3 + x151x152x3 + x38x152x3 + x171x152x3 
- x152x0x3
- x152x33x3 - x152x61x3 - x152x156x3 - x152x41x3 
= 0

x19x4x1 + x145x4x1 + x17x4x1 
- x4x0x1
- x4x173x1 - x4x156x1 - x4x138x1 - x4x20x1 - x4x165x1 
= 0
x121x4x2 + x19x4x2 + x74x4x2 + x24x4x2 + x171x4x2 
- x4x0x2
- x4x33x2 - x4x61x2 - x4x177x2 - x4x165x2 
= 0


x19x173x1 + x145x173x1 + x17x173x1 + x146x173x1 + x116x173x1 + x152x173x1 + x4x173x1 
- x173x0x1
- x173x156x1 - x173x138x1 - x173x165x1 
= 0




x121x33x2 + x19x33x2 + x74x33x2 + x24x33x2 + x171x33x2 + x86x33x2 + x4x33x2 
- x33x0x2

= 0
x133x33x3 + x58x33x3 + x124x33x3 + x74x33x3 + x17x33x3 + x24x33x3 + x7x33x3 + x151x33x3 + x146x33x3 + x116x33x3 + x38x33x3 + x171x33x3 + x152x33x3 
- x33x0x3

= 0


x121x61x2 + x19x61x2 + x74x61x2 + x24x61x2 + x171x61x2 + x86x61x2 + x4x61x2 
- x61x0x2

= 0
x133x61x3 + x58x61x3 + x124x61x3 + x74x61x3 + x17x61x3 + x24x61x3 + x7x61x3 + x151x61x3 + x146x61x3 + x116x61x3 + x38x61x3 + x171x61x3 + x141x61x3 + x152x61x3 
- x61x0x3
- x61x156x3 
= 0

x19x156x1 + x145x156x1 + x17x156x1 + x146x156x1 + x116x156x1 + x92x156x1 + x152x156x1 + x4x156x1 + x173x156x1 
- x156x0x1
- x156x138x1 
= 0

x133x156x3 + x58x156x3 + x124x156x3 + x74x156x3 + x17x156x3 + x24x156x3 + x7x156x3 + x151x156x3 + x146x156x3 + x116x156x3 + x38x156x3 + x171x156x3 + x141x156x3 + x152x156x3 + x61x156x3 
- x156x0x3

= 0


x121x42x2 + x19x42x2 + x74x42x2 + x24x42x2 
- x42x0x2
- x42x177x2 - x42x165x2 
= 0
x133x42x3 + x58x42x3 + x124x42x3 + x74x42x3 + x17x42x3 + x24x42x3 + x7x42x3 + x151x42x3 + x146x42x3 + x116x42x3 + x38x42x3 + x141x42x3 
- x42x0x3
- x42x104x3 - x42x41x3 
= 0



x133x104x3 + x58x104x3 + x124x104x3 + x74x104x3 + x17x104x3 + x24x104x3 + x7x104x3 + x151x104x3 + x146x104x3 + x116x104x3 + x38x104x3 + x171x104x3 + x141x104x3 + x42x104x3 
- x104x0x3
- x104x41x3 
= 0

x129x1x1 + x19x1x1 + x145x1x1 + x17x1x1 + x146x1x1 + x116x1x1 + x92x1x1 + x152x1x1 
- x1x0x1
- x1x20x1 - x1x165x1 
= 0





x133x41x3 + x58x41x3 + x124x41x3 + x74x41x3 + x17x41x3 + x24x41x3 + x7x41x3 + x151x41x3 + x146x41x3 + x116x41x3 + x38x41x3 + x171x41x3 + x141x41x3 + x152x41x3 + x42x41x3 + x104x41x3 
- x41x0x3

= 0


x121x177x2 + x129x177x2 + x19x177x2 + x74x177x2 + x24x177x2 + x171x177x2 + x86x177x2 + x4x177x2 + x42x177x2 
- x177x0x2
- x177x165x2 
= 0


x129x138x1 + x19x138x1 + x145x138x1 + x17x138x1 + x146x138x1 + x116x138x1 + x92x138x1 + x152x138x1 + x4x138x1 + x173x138x1 + x156x138x1 
- x138x0x1

= 0



x129x20x1 + x19x20x1 + x145x20x1 + x17x20x1 + x146x20x1 + x116x20x1 + x92x20x1 + x152x20x1 + x4x20x1 + x1x20x1 
- x20x0x1

= 0



x129x165x1 + x19x165x1 + x145x165x1 + x17x165x1 + x146x165x1 + x116x165x1 + x92x165x1 + x152x165x1 + x4x165x1 + x173x165x1 + x1x165x1 
- x165x0x1

= 0
x121x165x2 + x129x165x2 + x19x165x2 + x74x165x2 + x24x165x2 + x171x165x2 + x86x165x2 + x4x165x2 + x42x165x2 + x177x165x2 
- x165x0x2

= 0


1y24 - x121x24x2 - x19x24x2 - x74x24x2 = 0
1y24 - x133x24x3 - x58x24x3 - x124x24x3 - x74x24x3 - x17x24x3 = 0
2y7 - x133x7x3 - x58x7x3 - x124x7x3 - x74x7x3 - x17x7x3 = 0
2y151 - x133x151x3 - x58x151x3 - x124x151x3 - x74x151x3 - x17x151x3 - x24x151x3 = 0
1y146 - x19x146x1 - x145x146x1 - x17x146x1 = 0
1y146 - x133x146x3 - x58x146x3 - x124x146x3 - x74x146x3 - x17x146x3 - x24x146x3 - x151x146x3 = 0
1y116 - x19x116x1 - x145x116x1 - x17x116x1 - x146x116x1 = 0
1y116 - x133x116x3 - x58x116x3 - x124x116x3 - x74x116x3 - x17x116x3 - x24x116x3 - x151x116x3 - x146x116x3 = 0
2y38 - x133x38x3 - x58x38x3 - x124x38x3 - x74x38x3 - x17x38x3 - x24x38x3 - x7x38x3 - x151x38x3 = 0
1y171 - x121x171x2 - x19x171x2 - x74x171x2 = 0
1y171 - x133x171x3 - x58x171x3 - x124x171x3 - x74x171x3 - x17x171x3 = 0
2y92 - x19x92x1 - x145x92x1 - x17x92x1 - x146x92x1 - x116x92x1 = 0
2y141 - x133x141x3 - x58x141x3 - x124x141x3 - x74x141x3 - x17x141x3 - x24x141x3 - x7x141x3 - x151x141x3 - x146x141x3 - x116x141x3 - x38x141x3 = 0
2y86 - x121x86x2 - x19x86x2 - x74x86x2 - x24x86x2 - x171x86x2 = 0
1y152 - x19x152x1 - x145x152x1 - x17x152x1 = 0
1y152 - x133x152x3 - x58x152x3 - x124x152x3 - x74x152x3 - x17x152x3 - x24x152x3 - x7x152x3 - x151x152x3 - x38x152x3 - x171x152x3 = 0
1y4 - x19x4x1 - x145x4x1 - x17x4x1 = 0
1y4 - x121x4x2 - x19x4x2 - x74x4x2 - x24x4x2 - x171x4x2 = 0
2y173 - x19x173x1 - x145x173x1 - x17x173x1 - x146x173x1 - x116x173x1 - x152x173x1 - x4x173x1 = 0
1y33 - x121x33x2 - x19x33x2 - x74x33x2 - x24x33x2 - x171x33x2 - x86x33x2 - x4x33x2 = 0
1y33 - x133x33x3 - x58x33x3 - x124x33x3 - x74x33x3 - x17x33x3 - x24x33x3 - x7x33x3 - x151x33x3 - x146x33x3 - x116x33x3 - x38x33x3 - x171x33x3 - x152x33x3 = 0
1y61 - x121x61x2 - x19x61x2 - x74x61x2 - x24x61x2 - x171x61x2 - x86x61x2 - x4x61x2 = 0
1y61 - x133x61x3 - x58x61x3 - x124x61x3 - x74x61x3 - x17x61x3 - x24x61x3 - x7x61x3 - x151x61x3 - x146x61x3 - x116x61x3 - x38x61x3 - x171x61x3 - x141x61x3 - x152x61x3 = 0
1y156 - x19x156x1 - x145x156x1 - x17x156x1 - x146x156x1 - x116x156x1 - x92x156x1 - x152x156x1 - x4x156x1 - x173x156x1 = 0
1y156 - x133x156x3 - x58x156x3 - x124x156x3 - x74x156x3 - x17x156x3 - x24x156x3 - x7x156x3 - x151x156x3 - x146x156x3 - x116x156x3 - x38x156x3 - x171x156x3 - x141x156x3 - x152x156x3 - x61x156x3 = 0
1y42 - x121x42x2 - x19x42x2 - x74x42x2 - x24x42x2 = 0
1y42 - x133x42x3 - x58x42x3 - x124x42x3 - x74x42x3 - x17x42x3 - x24x42x3 - x7x42x3 - x151x42x3 - x146x42x3 - x116x42x3 - x38x42x3 - x141x42x3 = 0
2y104 - x133x104x3 - x58x104x3 - x124x104x3 - x74x104x3 - x17x104x3 - x24x104x3 - x7x104x3 - x151x104x3 - x146x104x3 - x116x104x3 - x38x104x3 - x171x104x3 - x141x104x3 - x42x104x3 = 0
2y1 - x129x1x1 - x19x1x1 - x145x1x1 - x17x1x1 - x146x1x1 - x116x1x1 - x92x1x1 - x152x1x1 = 0
2y41 - x133x41x3 - x58x41x3 - x124x41x3 - x74x41x3 - x17x41x3 - x24x41x3 - x7x41x3 - x151x41x3 - x146x41x3 - x116x41x3 - x38x41x3 - x171x41x3 - x141x41x3 - x152x41x3 - x42x41x3 - x104x41x3 = 0
2y177 - x121x177x2 - x129x177x2 - x19x177x2 - x74x177x2 - x24x177x2 - x171x177x2 - x86x177x2 - x4x177x2 - x42x177x2 = 0
2y138 - x129x138x1 - x19x138x1 - x145x138x1 - x17x138x1 - x146x138x1 - x116x138x1 - x92x138x1 - x152x138x1 - x4x138x1 - x173x138x1 - x156x138x1 = 0
2y20 - x129x20x1 - x19x20x1 - x145x20x1 - x17x20x1 - x146x20x1 - x116x20x1 - x92x20x1 - x152x20x1 - x4x20x1 - x1x20x1 = 0
1y165 - x129x165x1 - x19x165x1 - x145x165x1 - x17x165x1 - x146x165x1 - x116x165x1 - x92x165x1 - x152x165x1 - x4x165x1 - x173x165x1 - x1x165x1 = 0
1y165 - x121x165x2 - x129x165x2 - x19x165x2 - x74x165x2 - x24x165x2 - x171x165x2 - x86x165x2 - x4x165x2 - x42x165x2 - x177x165x2 = 0

s133 - s24 + 8.290422z133z24z3 <= 6.81
s133 - s7 + 8.296344z133z7z3 <= 6.81
s133 - s151 + 8.291530z133z151z3 <= 6.81
s133 - s146 + 8.298846z133z146z3 <= 6.81
s133 - s116 + 8.304802z133z116z3 <= 6.81
s133 - s38 + 8.315977z133z38z3 <= 6.81
s133 - s171 + 8.251985z133z171z3 <= 6.81
s133 - s141 + 8.332716z133z141z3 <= 6.81
s133 - s152 + 8.304039z133z152z3 <= 6.81
s133 - s33 + 8.307083z133z33z3 <= 6.81
s133 - s61 + 8.347782z133z61z3 <= 6.81
s133 - s156 + 8.338626z133z156z3 <= 6.81
s133 - s42 + 8.188271z133z42z3 <= 6.81
s133 - s104 + 8.224530z133z104z3 <= 6.81
s133 - s41 + 8.224102z133z41z3 <= 6.81
s58 - s24 + 8.106212z58z24z3 <= 6.52
s58 - s7 + 8.130319z58z7z3 <= 6.52
s58 - s151 + 8.102408z58z151z3 <= 6.52
s58 - s146 + 8.107045z58z146z3 <= 6.52
s58 - s116 + 8.115240z58z116z3 <= 6.52
s58 - s38 + 8.139821z58z38z3 <= 6.52
s58 - s171 + 8.128422z58z171z3 <= 6.52
s58 - s141 + 8.137666z58z141z3 <= 6.52
s58 - s152 + 8.168314z58z152z3 <= 6.52
s58 - s33 + 8.185766z58z33z3 <= 6.52
s58 - s61 + 8.212949z58z61z3 <= 6.52
s58 - s156 + 8.208315z58z156z3 <= 6.52
s58 - s42 + 7.851528z58z42z3 <= 6.52
s58 - s104 + 7.913559z58z104z3 <= 6.52
s58 - s41 + 7.903261z58z41z3 <= 6.52
s124 - s24 + 8.592855z124z24z3 <= 7.46
s124 - s7 + 8.575951z124z7z3 <= 7.46
s124 - s151 + 8.601257z124z151z3 <= 7.46
s124 - s146 + 8.610665z124z146z3 <= 7.46
s124 - s116 + 8.611546z124z116z3 <= 7.46
s124 - s38 + 8.603127z124z38z3 <= 7.46
s124 - s171 + 8.563871z124z171z3 <= 7.46
s124 - s141 + 8.640875z124z141z3 <= 7.46
s124 - s152 + 8.588965z124z152z3 <= 7.46
s124 - s33 + 8.616860z124z33z3 <= 7.46
s124 - s61 + 8.633368z124z61z3 <= 7.46
s124 - s156 + 8.630272z124z156z3 <= 7.46
s124 - s42 + 8.824731z124z42z3 <= 7.46
s124 - s104 + 8.792922z124z104z3 <= 7.46
s124 - s41 + 8.808806z124z41z3 <= 7.46
s121 - s24 + 8.585335z121z24z2 <= 7.52
s121 - s171 + 8.666343z121z171z2 <= 7.52
s121 - s86 + 8.656951z121z86z2 <= 7.52
s121 - s4 + 8.693138z121z4z2 <= 7.52
s121 - s33 + 8.705627z121z33z2 <= 7.52
s121 - s61 + 8.697190z121z61z2 <= 7.52
s121 - s42 + 8.858170z121z42z2 <= 7.52
s121 - s177 + 8.814822z121z177z2 <= 7.52
s121 - s165 + 8.856789z121z165z2 <= 7.52
s129 - s1 + 9.235587z129z1z1 <= 7.89
s129 - s177 + 9.224089z129z177z2 <= 7.89
s129 - s138 + 9.093652z129z138z1 <= 7.89
s129 - s20 + 9.287574z129z20z1 <= 7.89
s129 - s165 + 9.268519z129z165z1 <= 7.89
s129 - s165 + 9.268519z129z165z2 <= 7.89
s19 - s24 + 7.209725z19z24z2 <= 5.38
s19 - s146 + 7.219577z19z146z1 <= 5.38
s19 - s116 + 7.225012z19z116z1 <= 5.38
s19 - s171 + 7.141432z19z171z2 <= 5.38
s19 - s92 + 7.244741z19z92z1 <= 5.38
s19 - s86 + 7.206909z19z86z2 <= 5.38
s19 - s152 + 7.200434z19z152z1 <= 5.38
s19 - s4 + 7.150166z19z4z1 <= 5.38
s19 - s4 + 7.150166z19z4z2 <= 5.38
s19 - s173 + 7.176716z19z173z1 <= 5.38
s19 - s33 + 7.190624z19z33z2 <= 5.38
s19 - s61 + 7.241265z19z61z2 <= 5.38
s19 - s156 + 7.228790z19z156z1 <= 5.38
s19 - s42 + 7.077073z19z42z2 <= 5.38
s19 - s1 + 7.124312z19z1z1 <= 5.38
s19 - s177 + 7.147362z19z177z2 <= 5.38
s19 - s138 + 7.229497z19z138z1 <= 5.38
s19 - s20 + 7.103111z19z20z1 <= 5.38
s19 - s165 + 7.121470z19z165z1 <= 5.38
s19 - s165 + 7.121470z19z165z2 <= 5.38
s74 - s24 + 7.495066z74z24z2 <= 5.68
s74 - s24 + 7.495066z74z24z3 <= 5.68
s74 - s7 + 7.494278z74z7z3 <= 5.68
s74 - s151 + 7.497450z74z151z3 <= 5.68
s74 - s146 + 7.505262z74z146z3 <= 5.68
s74 - s116 + 7.510553z74z116z3 <= 5.68
s74 - s38 + 7.517344z74z38z3 <= 5.68
s74 - s171 + 7.423750z74z171z2 <= 5.68
s74 - s171 + 7.423750z74z171z3 <= 5.68
s74 - s141 + 7.539255z74z141z3 <= 5.68
s74 - s86 + 7.489701z74z86z2 <= 5.68
s74 - s152 + 7.483117z74z152z3 <= 5.68
s74 - s4 + 7.432059z74z4z2 <= 5.68
s74 - s33 + 7.472469z74z33z2 <= 5.68
s74 - s33 + 7.472469z74z33z3 <= 5.68
s74 - s61 + 7.523663z74z61z2 <= 5.68
s74 - s61 + 7.523663z74z61z3 <= 5.68
s74 - s156 + 7.510979z74z156z3 <= 5.68
s74 - s42 + 7.369962z74z42z2 <= 5.68
s74 - s42 + 7.369962z74z42z3 <= 5.68
s74 - s104 + 7.418379z74z104z3 <= 5.68
s74 - s41 + 7.414175z74z41z3 <= 5.68
s74 - s177 + 7.438938z74z177z2 <= 5.68
s74 - s165 + 7.414205z74z165z2 <= 5.68
s145 - s146 + 7.752431z145z146z1 <= 5.92
s145 - s116 + 7.758104z145z116z1 <= 5.92
s145 - s92 + 7.777926z145z92z1 <= 5.92
s145 - s152 + 7.738832z145z152z1 <= 5.92
s145 - s4 + 7.690261z145z4z1 <= 5.92
s145 - s173 + 7.716711z145z173z1 <= 5.92
s145 - s156 + 7.768191z145z156z1 <= 5.92
s145 - s1 + 7.648157z145z1z1 <= 5.92
s145 - s138 + 7.770980z145z138z1 <= 5.92
s145 - s20 + 7.625306z145z20z1 <= 5.92
s145 - s165 + 7.644286z145z165z1 <= 5.92
s17 - s24 + 7.358053z17z24z3 <= 5.56
s17 - s7 + 7.360694z17z7z3 <= 5.56
s17 - s151 + 7.359611z17z151z3 <= 5.56
s17 - s146 + 7.367080z17z146z1 <= 5.56
s17 - s146 + 7.367080z17z146z3 <= 5.56
s17 - s116 + 7.372841z17z116z1 <= 5.56
s17 - s116 + 7.372841z17z116z3 <= 5.56
s17 - s38 + 7.382192z17z38z3 <= 5.56
s17 - s171 + 7.298437z17z171z3 <= 5.56
s17 - s92 + 7.392693z17z92z1 <= 5.56
s17 - s141 + 7.401005z17z141z3 <= 5.56
s17 - s152 + 7.356130z17z152z1 <= 5.56
s17 - s152 + 7.356130z17z152z3 <= 5.56
s17 - s4 + 7.308628z17z4z1 <= 5.56
s17 - s173 + 7.334998z17z173z1 <= 5.56
s17 - s33 + 7.349176z17z33z3 <= 5.56
s17 - s61 + 7.397828z17z61z3 <= 5.56
s17 - s156 + 7.386075z17z156z1 <= 5.56
s17 - s156 + 7.386075z17z156z3 <= 5.56
s17 - s42 + 7.212959z17z42z3 <= 5.56
s17 - s104 + 7.263926z17z104z3 <= 5.56
s17 - s1 + 7.261269z17z1z1 <= 5.56
s17 - s41 + 7.258729z17z41z3 <= 5.56
s17 - s138 + 7.390234z17z138z1 <= 5.56
s17 - s20 + 7.238593z17z20z1 <= 5.56
s17 - s165 + 7.257487z17z165z1 <= 5.56
s24 - s151 + 9.613334z24z151z3 <= 8.60
s24 - s146 + 9.621082z24z146z3 <= 8.60
s24 - s116 + 9.618856z24z116z3 <= 8.60
s24 - s38 + 9.637712z24z38z3 <= 8.60
s24 - s141 + 9.648074z24z141z3 <= 8.60
s24 - s86 + 9.746819z24z86z2 <= 8.60
s24 - s152 + 9.753334z24z152z3 <= 8.60
s24 - s4 + 9.806990z24z4z2 <= 8.60
s24 - s33 + 9.807096z24z33z2 <= 8.60
s24 - s33 + 9.807096z24z33z3 <= 8.60
s24 - s61 + 9.777889z24z61z2 <= 8.60
s24 - s61 + 9.777889z24z61z3 <= 8.60
s24 - s156 + 9.788562z24z156z3 <= 8.60
s24 - s42 + 9.953836z24z42z2 <= 8.60
s24 - s42 + 9.953836z24z42z3 <= 8.60
s24 - s104 + 9.901478z24z104z3 <= 8.60
s24 - s41 + 9.920070z24z41z3 <= 8.60
s24 - s177 + 9.896124z24z177z2 <= 8.60
s24 - s165 + 9.944094z24z165z2 <= 8.60
s7 - s38 + 9.643333z7z38z3 <= 8.61
s7 - s141 + 9.696667z7z141z3 <= 8.61
s7 - s152 + 9.710221z7z152z3 <= 8.61
s7 - s33 + 9.764632z7z33z3 <= 8.61
s7 - s61 + 9.734543z7z61z3 <= 8.61
s7 - s156 + 9.744824z7z156z3 <= 8.61
s7 - s42 + 10.008776z7z42z3 <= 8.61
s7 - s104 + 9.959857z7z104z3 <= 8.61
s7 - s41 + 9.978178z7z41z3 <= 8.61
s151 - s146 + 9.629428z151z146z3 <= 8.62
s151 - s116 + 9.633333z151z116z3 <= 8.62
s151 - s38 + 9.668074z151z38z3 <= 8.62
s151 - s141 + 9.662164z151z141z3 <= 8.62
s151 - s152 + 9.786667z151z152z3 <= 8.62
s151 - s33 + 9.840404z151z33z3 <= 8.62
s151 - s61 + 9.810905z151z61z3 <= 8.62
s151 - s156 + 9.821770z151z156z3 <= 8.62
s151 - s42 + 9.964157z151z42z3 <= 8.62
s151 - s104 + 9.910669z151z104z3 <= 8.62
s151 - s41 + 9.929337z151z41z3 <= 8.62
s146 - s116 + 9.659428z146z116z1 <= 8.65
s146 - s116 + 9.659428z146z116z3 <= 8.65
s146 - s92 + 9.677487z146z92z1 <= 8.65
s146 - s141 + 9.683993z146z141z3 <= 8.65
s146 - s173 + 9.872511z146z173z1 <= 8.65
s146 - s33 + 9.877547z146z33z3 <= 8.65
s146 - s61 + 9.846186z146z61z3 <= 8.65
s146 - s156 + 9.857632z146z156z1 <= 8.65
s146 - s156 + 9.857632z146z156z3 <= 8.65
s146 - s42 + 9.994157z146z42z3 <= 8.65
s146 - s104 + 9.939444z146z104z3 <= 8.65
s146 - s1 + 9.948812z146z1z1 <= 8.65
s146 - s41 + 9.958184z146z41z3 <= 8.65
s146 - s138 + 9.923658z146z138z1 <= 8.65
s146 - s20 + 10.004337z146z20z1 <= 8.65
s146 - s165 + 9.982131z146z165z1 <= 8.65
s116 - s92 + 9.680000z116z92z1 <= 8.66
s116 - s141 + 9.689814z116z141z3 <= 8.66
s116 - s173 + 9.877050z116z173z1 <= 8.66
s116 - s33 + 9.881610z116z33z3 <= 8.66
s116 - s61 + 9.848561z116z61z3 <= 8.66
s116 - s156 + 9.860444z116z156z1 <= 8.66
s116 - s156 + 9.860444z116z156z3 <= 8.66
s116 - s42 + 10.013584z116z42z3 <= 8.66
s116 - s104 + 9.958813z116z104z3 <= 8.66
s116 - s1 + 9.968184z116z1z1 <= 8.66
s116 - s41 + 9.977560z116z41z3 <= 8.66
s116 - s138 + 9.926750z116z138z1 <= 8.66
s116 - s20 + 10.023746z116z20z1 <= 8.66
s116 - s165 + 10.001500z116z165z1 <= 8.66
s38 - s141 + 9.724975z38z141z3 <= 8.67
s38 - s152 + 9.799443z38z152z3 <= 8.67
s38 - s33 + 9.854391z38z33z3 <= 8.67
s38 - s61 + 9.817271z38z61z3 <= 8.67
s38 - s156 + 9.830000z38z156z3 <= 8.67
s38 - s42 + 10.061522z38z42z3 <= 8.67
s38 - s104 + 10.008690z38z104z3 <= 8.67
s38 - s41 + 10.027336z38z41z3 <= 8.67
s171 - s86 + 9.761802z171z86z2 <= 8.69
s171 - s152 + 9.753245z171z152z3 <= 8.69
s171 - s4 + 9.717487z171z4z2 <= 8.69
s171 - s33 + 9.747349z171z33z2 <= 8.69
s171 - s33 + 9.747349z171z33z3 <= 8.69
s171 - s61 + 9.790000z171z61z2 <= 8.69
s171 - s61 + 9.790000z171z61z3 <= 8.69
s171 - s156 + 9.777686z171z156z3 <= 8.69
s171 - s104 + 10.125022z171z104z3 <= 8.69
s171 - s41 + 10.141466z171z41z3 <= 8.69
s171 - s177 + 10.126755z171z177z2 <= 8.69
s171 - s165 + 10.164458z171z165z2 <= 8.69
s92 - s156 + 9.930111z92z156z1 <= 8.73
s92 - s1 + 10.051108z92z1z1 <= 8.73
s92 - s138 + 9.997000z92z138z1 <= 8.73
s92 - s20 + 10.107241z92z20z1 <= 8.73
s92 - s165 + 10.084337z92z165z1 <= 8.73
s141 - s61 + 9.970000z141z61z3 <= 8.77
s141 - s156 + 9.983750z141z156z3 <= 8.77
s141 - s42 + 10.134479z141z42z3 <= 8.77
s141 - s104 + 10.076449z141z104z3 <= 8.77
s141 - s41 + 10.095304z141z41z3 <= 8.77
s86 - s33 + 9.863246z86z33z2 <= 8.80
s86 - s61 + 9.842688z86z61z2 <= 8.80
s86 - s177 + 10.230813z86z177z2 <= 8.80
s86 - s165 + 10.274084z86z165z2 <= 8.80
s152 - s173 + 9.853748z152z173z1 <= 8.80
s152 - s33 + 9.854975z152z33z3 <= 8.80
s152 - s61 + 9.844722z152z61z3 <= 8.80
s152 - s156 + 9.842688z152z156z1 <= 8.80
s152 - s156 + 9.842688z152z156z3 <= 8.80
s152 - s1 + 10.244722z152z1z1 <= 8.80
s152 - s41 + 10.253530z152z41z3 <= 8.80
s152 - s138 + 9.901980z152z138z1 <= 8.80
s152 - s20 + 10.294952z152z20z1 <= 8.80
s152 - s165 + 10.277261z152z165z1 <= 8.80
s4 - s173 + 9.856667z4z173z1 <= 8.83
s4 - s33 + 9.870552z4z33z2 <= 8.83
s4 - s61 + 9.927068z4z61z2 <= 8.83
s4 - s156 + 9.911103z4z156z1 <= 8.83
s4 - s177 + 10.294231z4z177z2 <= 8.83
s4 - s138 + 9.920676z4z138z1 <= 8.83
s4 - s20 + 10.346613z4z20z1 <= 8.83
s4 - s165 + 10.331907z4z165z1 <= 8.83
s4 - s165 + 10.331907z4z165z2 <= 8.83
s173 - s156 + 9.964974z173z156z1 <= 8.91
s173 - s138 + 9.980867z173z138z1 <= 8.91
s173 - s165 + 10.420338z173z165z1 <= 8.91
s61 - s156 + 10.018856z61z156z3 <= 9.00
s156 - s138 + 10.087000z156z138z1 <= 9.02
s42 - s104 + 10.207987z42z104z3 <= 9.14
s42 - s41 + 10.193334z42z41z3 <= 9.14
s42 - s177 + 10.226923z42z177z2 <= 9.14
s42 - s165 + 10.184722z42z165z2 <= 9.14
s104 - s41 + 10.238856z104z41z3 <= 9.22
s1 - s20 + 10.317349z1z20z1 <= 9.26
s1 - s165 + 10.293333z1z165z1 <= 9.26
s177 - s165 + 10.383748z177z165z2 <= 9.33

x133x24x3 - 1z133z24z3 <= 0
x133x7x3 - 2z133z7z3 <= 0
x133x151x3 - 2z133z151z3 <= 0
x133x146x3 - 1z133z146z3 <= 0
x133x116x3 - 1z133z116z3 <= 0
x133x38x3 - 2z133z38z3 <= 0
x133x171x3 - 1z133z171z3 <= 0
x133x141x3 - 2z133z141z3 <= 0
x133x152x3 - 1z133z152z3 <= 0
x133x33x3 - 1z133z33z3 <= 0
x133x61x3 - 1z133z61z3 <= 0
x133x156x3 - 1z133z156z3 <= 0
x133x42x3 - 1z133z42z3 <= 0
x133x104x3 - 2z133z104z3 <= 0
x133x41x3 - 2z133z41z3 <= 0
x58x24x3 - 1z58z24z3 <= 0
x58x7x3 - 2z58z7z3 <= 0
x58x151x3 - 2z58z151z3 <= 0
x58x146x3 - 1z58z146z3 <= 0
x58x116x3 - 1z58z116z3 <= 0
x58x38x3 - 2z58z38z3 <= 0
x58x171x3 - 1z58z171z3 <= 0
x58x141x3 - 2z58z141z3 <= 0
x58x152x3 - 1z58z152z3 <= 0
x58x33x3 - 1z58z33z3 <= 0
x58x61x3 - 1z58z61z3 <= 0
x58x156x3 - 1z58z156z3 <= 0
x58x42x3 - 1z58z42z3 <= 0
x58x104x3 - 2z58z104z3 <= 0
x58x41x3 - 2z58z41z3 <= 0
x124x24x3 - 1z124z24z3 <= 0
x124x7x3 - 2z124z7z3 <= 0
x124x151x3 - 2z124z151z3 <= 0
x124x146x3 - 1z124z146z3 <= 0
x124x116x3 - 1z124z116z3 <= 0
x124x38x3 - 2z124z38z3 <= 0
x124x171x3 - 1z124z171z3 <= 0
x124x141x3 - 2z124z141z3 <= 0
x124x152x3 - 1z124z152z3 <= 0
x124x33x3 - 1z124z33z3 <= 0
x124x61x3 - 1z124z61z3 <= 0
x124x156x3 - 1z124z156z3 <= 0
x124x42x3 - 1z124z42z3 <= 0
x124x104x3 - 2z124z104z3 <= 0
x124x41x3 - 2z124z41z3 <= 0
x121x24x2 - 1z121z24z2 <= 0
x121x171x2 - 1z121z171z2 <= 0
x121x86x2 - 2z121z86z2 <= 0
x121x4x2 - 1z121z4z2 <= 0
x121x33x2 - 1z121z33z2 <= 0
x121x61x2 - 1z121z61z2 <= 0
x121x42x2 - 1z121z42z2 <= 0
x121x177x2 - 2z121z177z2 <= 0
x121x165x2 - 1z121z165z2 <= 0
x129x1x1 - 2z129z1z1 <= 0
x129x177x2 - 2z129z177z2 <= 0
x129x138x1 - 2z129z138z1 <= 0
x129x20x1 - 2z129z20z1 <= 0
x129x165x1 - 1z129z165z1 <= 0
x129x165x2 - 1z129z165z2 <= 0
x19x24x2 - 1z19z24z2 <= 0
x19x146x1 - 1z19z146z1 <= 0
x19x116x1 - 1z19z116z1 <= 0
x19x171x2 - 1z19z171z2 <= 0
x19x92x1 - 2z19z92z1 <= 0
x19x86x2 - 2z19z86z2 <= 0
x19x152x1 - 1z19z152z1 <= 0
x19x4x1 - 1z19z4z1 <= 0
x19x4x2 - 1z19z4z2 <= 0
x19x173x1 - 2z19z173z1 <= 0
x19x33x2 - 1z19z33z2 <= 0
x19x61x2 - 1z19z61z2 <= 0
x19x156x1 - 1z19z156z1 <= 0
x19x42x2 - 1z19z42z2 <= 0
x19x1x1 - 2z19z1z1 <= 0
x19x177x2 - 2z19z177z2 <= 0
x19x138x1 - 2z19z138z1 <= 0
x19x20x1 - 2z19z20z1 <= 0
x19x165x1 - 1z19z165z1 <= 0
x19x165x2 - 1z19z165z2 <= 0
x74x24x2 - 1z74z24z2 <= 0
x74x24x3 - 1z74z24z3 <= 0
x74x7x3 - 2z74z7z3 <= 0
x74x151x3 - 2z74z151z3 <= 0
x74x146x3 - 1z74z146z3 <= 0
x74x116x3 - 1z74z116z3 <= 0
x74x38x3 - 2z74z38z3 <= 0
x74x171x2 - 1z74z171z2 <= 0
x74x171x3 - 1z74z171z3 <= 0
x74x141x3 - 2z74z141z3 <= 0
x74x86x2 - 2z74z86z2 <= 0
x74x152x3 - 1z74z152z3 <= 0
x74x4x2 - 1z74z4z2 <= 0
x74x33x2 - 1z74z33z2 <= 0
x74x33x3 - 1z74z33z3 <= 0
x74x61x2 - 1z74z61z2 <= 0
x74x61x3 - 1z74z61z3 <= 0
x74x156x3 - 1z74z156z3 <= 0
x74x42x2 - 1z74z42z2 <= 0
x74x42x3 - 1z74z42z3 <= 0
x74x104x3 - 2z74z104z3 <= 0
x74x41x3 - 2z74z41z3 <= 0
x74x177x2 - 2z74z177z2 <= 0
x74x165x2 - 1z74z165z2 <= 0
x145x146x1 - 1z145z146z1 <= 0
x145x116x1 - 1z145z116z1 <= 0
x145x92x1 - 2z145z92z1 <= 0
x145x152x1 - 1z145z152z1 <= 0
x145x4x1 - 1z145z4z1 <= 0
x145x173x1 - 2z145z173z1 <= 0
x145x156x1 - 1z145z156z1 <= 0
x145x1x1 - 2z145z1z1 <= 0
x145x138x1 - 2z145z138z1 <= 0
x145x20x1 - 2z145z20z1 <= 0
x145x165x1 - 1z145z165z1 <= 0
x17x24x3 - 1z17z24z3 <= 0
x17x7x3 - 2z17z7z3 <= 0
x17x151x3 - 2z17z151z3 <= 0
x17x146x1 - 1z17z146z1 <= 0
x17x146x3 - 1z17z146z3 <= 0
x17x116x1 - 1z17z116z1 <= 0
x17x116x3 - 1z17z116z3 <= 0
x17x38x3 - 2z17z38z3 <= 0
x17x171x3 - 1z17z171z3 <= 0
x17x92x1 - 2z17z92z1 <= 0
x17x141x3 - 2z17z141z3 <= 0
x17x152x1 - 1z17z152z1 <= 0
x17x152x3 - 1z17z152z3 <= 0
x17x4x1 - 1z17z4z1 <= 0
x17x173x1 - 2z17z173z1 <= 0
x17x33x3 - 1z17z33z3 <= 0
x17x61x3 - 1z17z61z3 <= 0
x17x156x1 - 1z17z156z1 <= 0
x17x156x3 - 1z17z156z3 <= 0
x17x42x3 - 1z17z42z3 <= 0
x17x104x3 - 2z17z104z3 <= 0
x17x1x1 - 2z17z1z1 <= 0
x17x41x3 - 2z17z41z3 <= 0
x17x138x1 - 2z17z138z1 <= 0
x17x20x1 - 2z17z20z1 <= 0
x17x165x1 - 1z17z165z1 <= 0
x24x151x3 - 2z24z151z3 <= 0
x24x146x3 - 1z24z146z3 <= 0
x24x116x3 - 1z24z116z3 <= 0
x24x38x3 - 2z24z38z3 <= 0
x24x141x3 - 2z24z141z3 <= 0
x24x86x2 - 2z24z86z2 <= 0
x24x152x3 - 1z24z152z3 <= 0
x24x4x2 - 1z24z4z2 <= 0
x24x33x2 - 1z24z33z2 <= 0
x24x33x3 - 1z24z33z3 <= 0
x24x61x2 - 1z24z61z2 <= 0
x24x61x3 - 1z24z61z3 <= 0
x24x156x3 - 1z24z156z3 <= 0
x24x42x2 - 1z24z42z2 <= 0
x24x42x3 - 1z24z42z3 <= 0
x24x104x3 - 2z24z104z3 <= 0
x24x41x3 - 2z24z41z3 <= 0
x24x177x2 - 2z24z177z2 <= 0
x24x165x2 - 1z24z165z2 <= 0
x24x0x2 <= 1
x24x0x3 <= 1
x7x38x3 - 2z7z38z3 <= 0
x7x141x3 - 2z7z141z3 <= 0
x7x152x3 - 1z7z152z3 <= 0
x7x33x3 - 1z7z33z3 <= 0
x7x61x3 - 1z7z61z3 <= 0
x7x156x3 - 1z7z156z3 <= 0
x7x42x3 - 1z7z42z3 <= 0
x7x104x3 - 2z7z104z3 <= 0
x7x41x3 - 2z7z41z3 <= 0
x7x0x3 <= 2
x151x146x3 - 1z151z146z3 <= 0
x151x116x3 - 1z151z116z3 <= 0
x151x38x3 - 2z151z38z3 <= 0
x151x141x3 - 2z151z141z3 <= 0
x151x152x3 - 1z151z152z3 <= 0
x151x33x3 - 1z151z33z3 <= 0
x151x61x3 - 1z151z61z3 <= 0
x151x156x3 - 1z151z156z3 <= 0
x151x42x3 - 1z151z42z3 <= 0
x151x104x3 - 2z151z104z3 <= 0
x151x41x3 - 2z151z41z3 <= 0
x151x0x3 <= 2
x146x116x1 - 1z146z116z1 <= 0
x146x116x3 - 1z146z116z3 <= 0
x146x92x1 - 2z146z92z1 <= 0
x146x141x3 - 2z146z141z3 <= 0
x146x173x1 - 2z146z173z1 <= 0
x146x33x3 - 1z146z33z3 <= 0
x146x61x3 - 1z146z61z3 <= 0
x146x156x1 - 1z146z156z1 <= 0
x146x156x3 - 1z146z156z3 <= 0
x146x42x3 - 1z146z42z3 <= 0
x146x104x3 - 2z146z104z3 <= 0
x146x1x1 - 2z146z1z1 <= 0
x146x41x3 - 2z146z41z3 <= 0
x146x138x1 - 2z146z138z1 <= 0
x146x20x1 - 2z146z20z1 <= 0
x146x165x1 - 1z146z165z1 <= 0
x146x0x1 <= 1
x146x0x3 <= 1
x116x92x1 - 2z116z92z1 <= 0
x116x141x3 - 2z116z141z3 <= 0
x116x173x1 - 2z116z173z1 <= 0
x116x33x3 - 1z116z33z3 <= 0
x116x61x3 - 1z116z61z3 <= 0
x116x156x1 - 1z116z156z1 <= 0
x116x156x3 - 1z116z156z3 <= 0
x116x42x3 - 1z116z42z3 <= 0
x116x104x3 - 2z116z104z3 <= 0
x116x1x1 - 2z116z1z1 <= 0
x116x41x3 - 2z116z41z3 <= 0
x116x138x1 - 2z116z138z1 <= 0
x116x20x1 - 2z116z20z1 <= 0
x116x165x1 - 1z116z165z1 <= 0
x116x0x1 <= 1
x116x0x3 <= 1
x38x141x3 - 2z38z141z3 <= 0
x38x152x3 - 1z38z152z3 <= 0
x38x33x3 - 1z38z33z3 <= 0
x38x61x3 - 1z38z61z3 <= 0
x38x156x3 - 1z38z156z3 <= 0
x38x42x3 - 1z38z42z3 <= 0
x38x104x3 - 2z38z104z3 <= 0
x38x41x3 - 2z38z41z3 <= 0
x38x0x3 <= 2
x171x86x2 - 2z171z86z2 <= 0
x171x152x3 - 1z171z152z3 <= 0
x171x4x2 - 1z171z4z2 <= 0
x171x33x2 - 1z171z33z2 <= 0
x171x33x3 - 1z171z33z3 <= 0
x171x61x2 - 1z171z61z2 <= 0
x171x61x3 - 1z171z61z3 <= 0
x171x156x3 - 1z171z156z3 <= 0
x171x104x3 - 2z171z104z3 <= 0
x171x41x3 - 2z171z41z3 <= 0
x171x177x2 - 2z171z177z2 <= 0
x171x165x2 - 1z171z165z2 <= 0
x171x0x2 <= 1
x171x0x3 <= 1
x92x156x1 - 1z92z156z1 <= 0
x92x1x1 - 2z92z1z1 <= 0
x92x138x1 - 2z92z138z1 <= 0
x92x20x1 - 2z92z20z1 <= 0
x92x165x1 - 1z92z165z1 <= 0
x92x0x1 <= 2
x141x61x3 - 1z141z61z3 <= 0
x141x156x3 - 1z141z156z3 <= 0
x141x42x3 - 1z141z42z3 <= 0
x141x104x3 - 2z141z104z3 <= 0
x141x41x3 - 2z141z41z3 <= 0
x141x0x3 <= 2
x86x33x2 - 1z86z33z2 <= 0
x86x61x2 - 1z86z61z2 <= 0
x86x177x2 - 2z86z177z2 <= 0
x86x165x2 - 1z86z165z2 <= 0
x86x0x2 <= 2
x152x173x1 - 2z152z173z1 <= 0
x152x33x3 - 1z152z33z3 <= 0
x152x61x3 - 1z152z61z3 <= 0
x152x156x1 - 1z152z156z1 <= 0
x152x156x3 - 1z152z156z3 <= 0
x152x1x1 - 2z152z1z1 <= 0
x152x41x3 - 2z152z41z3 <= 0
x152x138x1 - 2z152z138z1 <= 0
x152x20x1 - 2z152z20z1 <= 0
x152x165x1 - 1z152z165z1 <= 0
x152x0x1 <= 1
x152x0x3 <= 1
x4x173x1 - 2z4z173z1 <= 0
x4x33x2 - 1z4z33z2 <= 0
x4x61x2 - 1z4z61z2 <= 0
x4x156x1 - 1z4z156z1 <= 0
x4x177x2 - 2z4z177z2 <= 0
x4x138x1 - 2z4z138z1 <= 0
x4x20x1 - 2z4z20z1 <= 0
x4x165x1 - 1z4z165z1 <= 0
x4x165x2 - 1z4z165z2 <= 0
x4x0x1 <= 1
x4x0x2 <= 1
x173x156x1 - 1z173z156z1 <= 0
x173x138x1 - 2z173z138z1 <= 0
x173x165x1 - 1z173z165z1 <= 0
x173x0x1 <= 2
x33x0x2 <= 1
x33x0x3 <= 1
x61x156x3 - 1z61z156z3 <= 0
x61x0x2 <= 1
x61x0x3 <= 1
x156x138x1 - 2z156z138z1 <= 0
x156x0x1 <= 1
x156x0x3 <= 1
x42x104x3 - 2z42z104z3 <= 0
x42x41x3 - 2z42z41z3 <= 0
x42x177x2 - 2z42z177z2 <= 0
x42x165x2 - 1z42z165z2 <= 0
x42x0x2 <= 1
x42x0x3 <= 1
x104x41x3 - 2z104z41z3 <= 0
x104x0x3 <= 2
x1x20x1 - 2z1z20z1 <= 0
x1x165x1 - 1z1z165z1 <= 0
x1x0x1 <= 2
x41x0x3 <= 2
x177x165x2 - 1z177z165z2 <= 0
x177x0x2 <= 2
x138x0x1 <= 2
x20x0x1 <= 2
x165x0x1 <= 1
x165x0x2 <= 1

Bounds
s133 = 6.809266
s58 = 6.520000
s124 = 7.459522
s121 = 7.519676
s115 = 8.242290
s129 = 7.889691
s90 = 8.238971
s63 = 8.335322
s101 = 8.552856
s19 = 5.380000
s74 = 5.676340
s145 = 5.917100
s17 = 5.560000
7.600000 <= s24 <= 8.600000
7.610000 <= s7 <= 8.610000
7.620000 <= s151 <= 8.620000
7.650000 <= s146 <= 8.650000
7.660000 <= s116 <= 8.660000
7.670000 <= s38 <= 8.670000
7.690000 <= s171 <= 8.690000
7.730000 <= s92 <= 8.730000
7.770000 <= s141 <= 8.770000
7.800000 <= s86 <= 8.800000
7.800000 <= s152 <= 8.800000
7.830000 <= s4 <= 8.830000
7.910000 <= s173 <= 8.910000
7.990000 <= s33 <= 8.990000
8.000000 <= s61 <= 9.000000
8.020000 <= s156 <= 9.020000
8.140000 <= s42 <= 9.140000
8.220000 <= s104 <= 9.220000
8.260000 <= s1 <= 9.260000
8.290000 <= s41 <= 9.290000
8.330000 <= s177 <= 9.330000
8.350000 <= s138 <= 9.350000
8.430000 <= s20 <= 9.430000
8.440000 <= s165 <= 9.440000

General
x133x24x3 x133x7x3 x133x151x3 x133x146x3 x133x116x3 x133x38x3 x133x171x3 x133x141x3 x133x152x3 x133x33x3 x133x61x3 x133x156x3 x133x42x3 x133x104x3 x133x41x3 
x58x24x3 x58x7x3 x58x151x3 x58x146x3 x58x116x3 x58x38x3 x58x171x3 x58x141x3 x58x152x3 x58x33x3 x58x61x3 x58x156x3 x58x42x3 x58x104x3 x58x41x3 
x124x24x3 x124x7x3 x124x151x3 x124x146x3 x124x116x3 x124x38x3 x124x171x3 x124x141x3 x124x152x3 x124x33x3 x124x61x3 x124x156x3 x124x42x3 x124x104x3 x124x41x3 
x121x24x2 x121x171x2 x121x86x2 x121x4x2 x121x33x2 x121x61x2 x121x42x2 x121x177x2 x121x165x2 

x129x1x1 x129x177x2 x129x138x1 x129x20x1 x129x165x1 x129x165x2 



x19x24x2 x19x146x1 x19x116x1 x19x171x2 x19x92x1 x19x86x2 x19x152x1 x19x4x1 x19x4x2 x19x173x1 x19x33x2 x19x61x2 x19x156x1 x19x42x2 x19x1x1 x19x177x2 x19x138x1 x19x20x1 x19x165x1 x19x165x2 
x74x24x2 x74x24x3 x74x7x3 x74x151x3 x74x146x3 x74x116x3 x74x38x3 x74x171x2 x74x171x3 x74x141x3 x74x86x2 x74x152x3 x74x4x2 x74x33x2 x74x33x3 x74x61x2 x74x61x3 x74x156x3 x74x42x2 x74x42x3 x74x104x3 x74x41x3 x74x177x2 x74x165x2 
x145x146x1 x145x116x1 x145x92x1 x145x152x1 x145x4x1 x145x173x1 x145x156x1 x145x1x1 x145x138x1 x145x20x1 x145x165x1 
x17x24x3 x17x7x3 x17x151x3 x17x146x1 x17x146x3 x17x116x1 x17x116x3 x17x38x3 x17x171x3 x17x92x1 x17x141x3 x17x152x1 x17x152x3 x17x4x1 x17x173x1 x17x33x3 x17x61x3 x17x156x1 x17x156x3 x17x42x3 x17x104x3 x17x1x1 x17x41x3 x17x138x1 x17x20x1 x17x165x1 
x24x151x3 x24x146x3 x24x116x3 x24x38x3 x24x141x3 x24x86x2 x24x152x3 x24x4x2 x24x33x2 x24x33x3 x24x61x2 x24x61x3 x24x156x3 x24x42x2 x24x42x3 x24x104x3 x24x41x3 x24x177x2 x24x165x2 x24x0x2 x24x0x3 
x7x38x3 x7x141x3 x7x152x3 x7x33x3 x7x61x3 x7x156x3 x7x42x3 x7x104x3 x7x41x3 x7x0x3 
x151x146x3 x151x116x3 x151x38x3 x151x141x3 x151x152x3 x151x33x3 x151x61x3 x151x156x3 x151x42x3 x151x104x3 x151x41x3 x151x0x3 
x146x116x1 x146x116x3 x146x92x1 x146x141x3 x146x173x1 x146x33x3 x146x61x3 x146x156x1 x146x156x3 x146x42x3 x146x104x3 x146x1x1 x146x41x3 x146x138x1 x146x20x1 x146x165x1 x146x0x1 x146x0x3 
x116x92x1 x116x141x3 x116x173x1 x116x33x3 x116x61x3 x116x156x1 x116x156x3 x116x42x3 x116x104x3 x116x1x1 x116x41x3 x116x138x1 x116x20x1 x116x165x1 x116x0x1 x116x0x3 
x38x141x3 x38x152x3 x38x33x3 x38x61x3 x38x156x3 x38x42x3 x38x104x3 x38x41x3 x38x0x3 
x171x86x2 x171x152x3 x171x4x2 x171x33x2 x171x33x3 x171x61x2 x171x61x3 x171x156x3 x171x104x3 x171x41x3 x171x177x2 x171x165x2 x171x0x2 x171x0x3 
x92x156x1 x92x1x1 x92x138x1 x92x20x1 x92x165x1 x92x0x1 
x141x61x3 x141x156x3 x141x42x3 x141x104x3 x141x41x3 x141x0x3 
x86x33x2 x86x61x2 x86x177x2 x86x165x2 x86x0x2 
x152x173x1 x152x33x3 x152x61x3 x152x156x1 x152x156x3 x152x1x1 x152x41x3 x152x138x1 x152x20x1 x152x165x1 x152x0x1 x152x0x3 
x4x173x1 x4x33x2 x4x61x2 x4x156x1 x4x177x2 x4x138x1 x4x20x1 x4x165x1 x4x165x2 x4x0x1 x4x0x2 
x173x156x1 x173x138x1 x173x165x1 x173x0x1 
x33x0x2 x33x0x3 
x61x156x3 x61x0x2 x61x0x3 
x156x138x1 x156x0x1 x156x0x3 
x42x104x3 x42x41x3 x42x177x2 x42x165x2 x42x0x2 x42x0x3 
x104x41x3 x104x0x3 
x1x20x1 x1x165x1 x1x0x1 
x41x0x3 
x177x165x2 x177x0x2 
x138x0x1 
x20x0x1 
x165x0x1 x165x0x2 

Binaries
y24 y7 y151 y146 y116 y38 y171 y92 y141 y86 y152 y4 y173 y33 y61 y156 y42 y104 y1 y41 y177 y138 y20 y165 
z133z24z3 z133z7z3 z133z151z3 z133z146z3 z133z116z3 z133z38z3 z133z171z3 z133z141z3 z133z152z3 z133z33z3 z133z61z3 z133z156z3 z133z42z3 z133z104z3 z133z41z3 
z58z24z3 z58z7z3 z58z151z3 z58z146z3 z58z116z3 z58z38z3 z58z171z3 z58z141z3 z58z152z3 z58z33z3 z58z61z3 z58z156z3 z58z42z3 z58z104z3 z58z41z3 
z124z24z3 z124z7z3 z124z151z3 z124z146z3 z124z116z3 z124z38z3 z124z171z3 z124z141z3 z124z152z3 z124z33z3 z124z61z3 z124z156z3 z124z42z3 z124z104z3 z124z41z3 
z121z24z2 z121z171z2 z121z86z2 z121z4z2 z121z33z2 z121z61z2 z121z42z2 z121z177z2 z121z165z2 

z129z1z1 z129z177z2 z129z138z1 z129z20z1 z129z165z1 z129z165z2 



z19z24z2 z19z146z1 z19z116z1 z19z171z2 z19z92z1 z19z86z2 z19z152z1 z19z4z1 z19z4z2 z19z173z1 z19z33z2 z19z61z2 z19z156z1 z19z42z2 z19z1z1 z19z177z2 z19z138z1 z19z20z1 z19z165z1 z19z165z2 
z74z24z2 z74z24z3 z74z7z3 z74z151z3 z74z146z3 z74z116z3 z74z38z3 z74z171z2 z74z171z3 z74z141z3 z74z86z2 z74z152z3 z74z4z2 z74z33z2 z74z33z3 z74z61z2 z74z61z3 z74z156z3 z74z42z2 z74z42z3 z74z104z3 z74z41z3 z74z177z2 z74z165z2 
z145z146z1 z145z116z1 z145z92z1 z145z152z1 z145z4z1 z145z173z1 z145z156z1 z145z1z1 z145z138z1 z145z20z1 z145z165z1 
z17z24z3 z17z7z3 z17z151z3 z17z146z1 z17z146z3 z17z116z1 z17z116z3 z17z38z3 z17z171z3 z17z92z1 z17z141z3 z17z152z1 z17z152z3 z17z4z1 z17z173z1 z17z33z3 z17z61z3 z17z156z1 z17z156z3 z17z42z3 z17z104z3 z17z1z1 z17z41z3 z17z138z1 z17z20z1 z17z165z1 
z24z151z3 z24z146z3 z24z116z3 z24z38z3 z24z141z3 z24z86z2 z24z152z3 z24z4z2 z24z33z2 z24z33z3 z24z61z2 z24z61z3 z24z156z3 z24z42z2 z24z42z3 z24z104z3 z24z41z3 z24z177z2 z24z165z2 
z7z38z3 z7z141z3 z7z152z3 z7z33z3 z7z61z3 z7z156z3 z7z42z3 z7z104z3 z7z41z3 
z151z146z3 z151z116z3 z151z38z3 z151z141z3 z151z152z3 z151z33z3 z151z61z3 z151z156z3 z151z42z3 z151z104z3 z151z41z3 
z146z116z1 z146z116z3 z146z92z1 z146z141z3 z146z173z1 z146z33z3 z146z61z3 z146z156z1 z146z156z3 z146z42z3 z146z104z3 z146z1z1 z146z41z3 z146z138z1 z146z20z1 z146z165z1 
z116z92z1 z116z141z3 z116z173z1 z116z33z3 z116z61z3 z116z156z1 z116z156z3 z116z42z3 z116z104z3 z116z1z1 z116z41z3 z116z138z1 z116z20z1 z116z165z1 
z38z141z3 z38z152z3 z38z33z3 z38z61z3 z38z156z3 z38z42z3 z38z104z3 z38z41z3 
z171z86z2 z171z152z3 z171z4z2 z171z33z2 z171z33z3 z171z61z2 z171z61z3 z171z156z3 z171z104z3 z171z41z3 z171z177z2 z171z165z2 
z92z156z1 z92z1z1 z92z138z1 z92z20z1 z92z165z1 
z141z61z3 z141z156z3 z141z42z3 z141z104z3 z141z41z3 
z86z33z2 z86z61z2 z86z177z2 z86z165z2 
z152z173z1 z152z33z3 z152z61z3 z152z156z1 z152z156z3 z152z1z1 z152z41z3 z152z138z1 z152z20z1 z152z165z1 
z4z173z1 z4z33z2 z4z61z2 z4z156z1 z4z177z2 z4z138z1 z4z20z1 z4z165z1 z4z165z2 
z173z156z1 z173z138z1 z173z165z1 

z61z156z3 
z156z138z1 
z42z104z3 z42z41z3 z42z177z2 z42z165z2 
z104z41z3 
z1z20z1 z1z165z1 

z177z165z2 




End